DIMACS_lns/graph-1000-10.col
p edge 1000 1768
e 1 716
e 1 426
e 1 180
e 3 268
e 3 342
e 3 982
e 3 796
e 3 589
e 3 654
e 7 388
e 7 897
e 7 908
e 7 228
e 9 124
e 9 144
e 9 376
e 9 377
e 9 254
e 10 664
e 10 60
e 10 334
e 10 829
e 10 105
e 10 481
e 12 76
e 12 372
e 12 509
e 12 413
e 13 668
e 13 800
e 13 100
e 13 105
e 13 588
e 13 396
e 14 472
e 14 156
e 14 670
e 14 994
e 14 233
e 14 748
e 16 582
e 16 195
e 16 612
e 18 42
e 18 394
e 18 568
e 19 631
e 19 421
e 19 935
e 21 842
e 21 690
e 21 550
e 21 930
e 21 984
e 21 354
e 22 108
e 22 200
e 22 602
e 23 848
e 23 619
e 23 835
e 23 671
e 23 373
e 24 38
e 24 707
e 24 660
e 24 747
e 25 39
e 25 588
e 25 422
e 25 309
e 25 879
e 26 414
e 26 637
e 26 280
e 26 719
e 27 711
e 27 76
e 27 312
e 32 745
e 32 796
e 32 615
e 34 629
e 34 713
e 34 622
e 34 609
e 34 563
e 35 488
e 35 552
e 35 425
e 35 761
e 35 38
e 35 906
e 35 876
e 38 194
e 38 509
e 38 932
e 38 632
e 39 435
e 39 126
e 41 475
e 41 407
e 41 340
e 41 503
e 42 109
e 42 250
e 42 952
e 42 123
e 42 671
e 42 488
e 42 618
e 42 703
e 42 599
e 42 257
e 44 211
e 44 896
e 44 482
e 46 351
e 46 835
e 46 85
e 46 543
e 46 298
e 46 394
e 47 388
e 47 690
e 47 458
e 47 564
e 47 463
e 47 192
e 48 772
e 48 789
e 48 540
e 48 835
e 50 529
e 50 873
e 50 148
e 51 314
e 51 693
e 51 618
e 51 211
e 51 567
e 52 666
e 52 320
e 52 817
e 52 749
e 53 198
e 53 556
e 53 720
e 53 741
e 53 566
e 53 473
e 53 430
e 53 275
e 56 317
e 56 802
e 56 513
e 58 274
e 58 222
e 58 385
e 59 242
e 59 967
e 59 884
e 59 660
e 59 312
e 60 712
e 60 970
e 60 494
e 61 663
e 61 476
e 61 586
e 61 847
e 61 432
e 61 609
e 63 868
e 63 995
e 63 720
e 63 352
e 63 82
e 63 885
e 64 125
e 64 199
e 64 467
e 64 299
e 65 773
e 65 426
e 65 249
e 65 405
e 65 88
e 66 745
e 66 536
e 66 449
e 69 632
e 69 552
e 69 428
e 69 840
e 69 502
e 72 810
e 72 394
e 72 512
e 73 213
e 73 287
e 73 951
e 73 355
e 73 442
e 73 617
e 75 381
e 75 110
e 75 822
e 75 394
e 76 136
e 76 336
e 76 316
e 76 688
e 76 767
e 76 313
e 76 525
e 77 115
e 77 546
e 77 719
e 77 940
e 77 394
e 78 344
e 78 970
e 78 411
e 79 247
e 79 270
e 79 499
e 80 242
e 80 610
e 80 442
e 80 769
e 80 319
e 80 855
e 80 294
e 81 171
e 81 788
e 81 316
e 82 300
e 82 366
e 82 213
e 82 190
e 82 448
e 82 346
e 84 859
e 84 732
e 84 773
e 85 600
e 85 561
e 85 248
e 85 209
e 85 338
e 85 315
e 86 103
e 86 369
e 86 519
e 88 115
e 88 316
e 88 743
e 88 902
e 88 509
e 89 729
e 89 641
e 89 537
e 93 152
e 93 746
e 93 780
e 95 202
e 95 979
e 95 543
e 96 523
e 96 963
e 96 343
e 96 472
e 96 474
e 96 839
e 96 191
e 98 685
e 98 701
e 98 182
e 100 578
e 100 183
e 101 371
e 101 870
e 101 431
e 101 559
e 101 685
e 101 346
e 101 502
e 101 717
e 101 706
e 101 576
e 101 763
e 102 936
e 102 289
e 102 841
e 103 508
e 103 704
e 103 238
e 103 189
e 105 448
e 106 179
e 106 735
e 106 443
e 106 817
e 106 730
e 106 247
e 106 661
e 107 332
e 107 859
e 107 326
e 107 880
e 107 476
e 108 972
e 108 986
e 108 882
e 108 893
e 108 472
e 108 332
e 108 620
e 108 132
e 108 663
e 108 127
e 108 848
e 109 820
e 109 631
e 110 441
e 110 776
e 112 749
e 112 541
e 112 982
e 115 482
e 115 412
e 115 964
e 115 281
e 115 452
e 115 903
e 115 768
e 116 886
e 116 214
e 116 428
e 116 129
e 116 619
e 116 436
e 116 163
e 121 444
e 121 965
e 121 218
e 123 448
e 123 210
e 123 721
e 124 476
e 124 668
e 124 763
e 124 289
e 125 534
e 125 514
e 125 226
e 125 934
e 126 417
e 126 497
e 126 552
e 126 384
e 126 196
e 127 808
e 127 574
e 127 618
e 127 376
e 127 668
e 128 903
e 128 157
e 128 731
e 128 752
e 129 844
e 129 516
e 129 609
e 129 425
e 129 479
e 130 302
e 130 830
e 130 724
e 132 783
e 132 639
e 132 509
e 132 531
e 132 449
e 134 986
e 134 776
e 134 729
e 135 435
e 135 817
e 135 1000
e 135 863
e 135 478
e 136 402
e 136 932
e 137 144
e 137 333
e 137 527
e 137 851
e 137 572
e 138 626
e 138 669
e 138 604
e 139 205
e 139 266
e 139 859
e 141 448
e 141 805
e 141 919
e 141 637
e 143 780
e 143 841
e 143 967
e 143 751
e 143 915
e 143 435
e 143 761
e 143 397
e 144 717
e 144 176
e 144 977
e 144 631
e 145 725
e 145 353
e 145 442
e 145 523
e 145 260
e 145 691
e 145 768
e 146 484
e 146 360
e 146 646
e 147 588
e 147 889
e 147 417
e 147 731
e 147 229
e 148 531
e 148 270
e 148 760
e 148 765
e 148 701
e 148 601
e 148 200
e 152 872
e 152 752
e 152 358
e 152 278
e 156 474
e 156 276
e 156 240
e 156 496
e 156 171
e 156 702
e 156 908
e 157 304
e 157 568
e 157 544
e 159 259
e 159 960
e 159 889
e 161 661
e 161 558
e 161 171
e 161 516
e 162 919
e 162 844
e 162 575
e 163 915
e 163 173
e 165 730
e 165 195
e 165 851
e 165 710
e 166 305
e 166 739
e 166 354
e 166 279
e 168 997
e 168 546
e 168 324
e 168 639
e 169 543
e 169 848
e 169 843
e 169 287
e 169 877
e 169 748
e 171 805
e 171 282
e 171 797
e 171 297
e 171 925
e 171 795
e 172 252
e 172 777
e 172 317
e 173 730
e 173 665
e 173 423
e 173 317
e 173 540
e 173 351
e 174 476
e 174 741
e 174 211
e 175 325
e 175 650
e 175 217
e 175 700
e 176 692
e 176 302
e 177 480
e 177 242
e 177 525
e 177 754
e 177 863
e 177 274
e 177 772
e 178 550
e 178 695
e 178 353
e 178 255
e 178 752
e 178 782
e 178 377
e 178 500
e 178 529
e 179 195
e 179 846
e 179 900
e 179 467
e 180 623
e 180 730
e 180 496
e 180 570
e 180 896
e 182 616
e 182 695
e 183 881
e 183 360
e 183 190
e 185 626
e 185 268
e 185 731
e 185 604
e 185 425
e 185 636
e 187 484
e 187 548
e 187 839
e 188 537
e 188 630
e 188 541
e 189 591
e 189 512
e 189 850
e 189 217
e 190 247
e 190 401
e 190 868
e 190 805
e 191 777
e 191 995
e 191 672
e 191 497
e 191 902
e 192 907
e 192 544
e 192 606
e 192 919
e 193 456
e 193 431
e 193 1000
e 193 606
e 193 541
e 193 597
e 194 514
e 194 934
e 194 518
e 195 941
e 196 984
e 196 234
e 196 425
e 196 508
e 197 202
e 197 446
e 197 758
e 197 942
e 198 935
e 198 908
e 198 277
e 198 465
e 198 606
e 199 723
e 199 671
e 199 738
e 200 577
e 200 641
e 200 968
e 200 260
e 202 327
e 202 820
e 202 443
e 202 673
e 203 283
e 203 255
e 203 934
e 204 481
e 204 886
e 204 805
e 204 692
e 204 226
e 205 629
e 205 951
e 205 912
e 208 496
e 208 535
e 208 554
e 209 519
e 209 933
e 210 591
e 210 227
e 210 371
e 211 940
e 211 305
e 211 866
e 213 591
e 213 297
e 213 586
e 214 553
e 214 384
e 214 559
e 214 448
e 214 376
e 215 838
e 215 511
e 215 342
e 215 315
e 215 913
e 216 957
e 216 876
e 216 518
e 216 394
e 217 821
e 217 324
e 218 997
e 218 641
e 218 940
e 219 773
e 219 615
e 219 366
e 219 225
e 219 399
e 219 261
e 222 936
e 222 650
e 222 886
e 222 839
e 225 897
e 225 776
e 225 586
e 226 666
e 227 354
e 227 332
e 227 913
e 227 880
e 227 300
e 227 863
e 228 281
e 228 864
e 228 476
e 228 796
e 228 489
e 228 850
e 229 841
e 229 615
e 229 350
e 229 422
e 229 720
e 229 419
e 231 619
e 231 511
e 231 418
e 232 357
e 232 412
e 232 272
e 232 601
e 232 909
e 233 869
e 233 883
e 233 365
e 233 364
e 234 272
e 234 535
e 236 833
e 236 268
e 236 760
e 236 600
e 236 988
e 238 700
e 238 659
e 239 635
e 239 730
e 239 262
e 240 449
e 240 736
e 240 458
e 240 600
e 240 959
e 242 726
e 242 459
e 246 954
e 246 799
e 246 266
e 247 711
e 247 686
e 247 650
e 247 687
e 247 844
e 248 773
e 248 480
e 248 311
e 248 621
e 248 700
e 249 260
e 249 264
e 249 868
e 250 853
e 250 521
e 252 540
e 252 728
e 252 605
e 252 337
e 252 659
e 254 980
e 254 909
e 254 582
e 254 662
e 254 502
e 255 408
e 255 654
e 255 997
e 257 405
e 257 709
e 258 804
e 258 399
e 258 749
e 258 262
e 258 870
e 259 621
e 259 308
e 261 853
e 261 336
e 261 280
e 261 724
e 262 548
e 262 332
e 262 315
e 263 938
e 263 272
e 263 493
e 263 585
e 263 832
e 263 480
e 263 865
e 264 881
e 264 358
e 264 765
e 264 474
e 266 714
e 266 331
e 268 933
e 268 702
e 268 754
e 268 325
e 270 725
e 270 844
e 270 577
e 271 472
e 271 462
e 271 369
e 272 780
e 272 356
e 273 623
e 273 925
e 273 308
e 273 761
e 274 556
e 274 555
e 275 649
e 275 332
e 275 582
e 275 944
e 276 853
e 276 715
e 276 503
e 276 630
e 277 955
e 277 458
e 278 754
e 278 381
e 278 395
e 279 502
e 279 886
e 279 364
e 280 330
e 280 490
e 281 749
e 281 908
e 281 927
e 282 325
e 282 311
e 282 915
e 282 693
e 282 413
e 283 481
e 283 389
e 283 333
e 283 339
e 283 834
e 283 628
e 283 567
e 286 902
e 286 462
e 286 962
e 287 775
e 289 842
e 290 828
e 290 873
e 290 436
e 290 841
e 291 915
e 291 494
e 291 410
e 294 298
e 294 305
e 294 465
e 294 828
e 295 982
e 295 611
e 295 791
e 295 356
e 295 636
e 297 843
e 297 344
e 297 691
e 298 304
e 299 885
e 299 984
e 299 531
e 299 441
e 299 646
e 299 830
e 300 488
e 300 630
e 300 306
e 302 316
e 302 432
e 302 631
e 302 396
e 302 753
e 302 817
e 304 490
e 304 644
e 305 821
e 306 316
e 306 632
e 306 847
e 306 674
e 308 479
e 308 871
e 309 421
e 309 772
e 309 492
e 309 952
e 309 540
e 311 797
e 311 656
e 312 882
e 312 805
e 312 424
e 313 336
e 313 367
e 314 934
e 314 590
e 315 463
e 315 477
e 315 853
e 315 320
e 315 739
e 315 459
e 316 876
e 317 511
e 317 942
e 317 421
e 319 858
e 319 632
e 319 820
e 320 777
e 320 910
e 321 986
e 321 511
e 321 339
e 321 573
e 324 413
e 325 585
e 325 994
e 325 693
e 326 937
e 326 926
e 327 710
e 327 688
e 327 842
e 330 776
e 330 760
e 330 622
e 330 953
e 331 887
e 331 418
e 331 572
e 331 601
e 332 869
e 332 594
e 332 720
e 332 777
e 333 439
e 333 971
e 333 687
e 334 816
e 334 525
e 334 444
e 334 669
e 334 597
e 335 500
e 335 449
e 335 856
e 335 673
e 335 971
e 335 554
e 336 896
e 336 801
e 336 970
e 336 968
e 337 481
e 337 425
e 337 797
e 338 738
e 338 902
e 339 660
e 339 923
e 340 800
e 340 685
e 340 379
e 341 347
e 341 555
e 341 649
e 342 526
e 343 808
e 343 873
e 343 476
e 343 751
e 343 953
e 344 812
e 344 811
e 344 518
e 346 803
e 346 393
e 346 670
e 346 919
e 347 449
e 347 942
e 348 376
e 348 350
e 348 404
e 350 855
e 350 610
e 351 696
e 351 834
e 351 837
e 351 572
e 351 721
e 351 889
e 351 411
e 351 449
e 351 932
e 352 450
e 352 844
e 352 775
e 352 704
e 353 957
e 353 789
e 354 834
e 355 739
e 355 409
e 356 635
e 356 448
e 356 552
e 357 581
e 357 872
e 358 908
e 360 563
e 360 790
e 360 939
e 362 594
e 362 926
e 362 620
e 364 487
e 365 476
e 365 765
e 365 454
e 365 652
e 365 862
e 366 745
e 366 810
e 367 425
e 367 720
e 367 417
e 368 502
e 368 409
e 368 752
e 368 730
e 369 692
e 369 404
e 369 939
e 371 803
e 371 450
e 371 848
e 371 769
e 371 886
e 372 959
e 372 649
e 372 737
e 372 674
e 372 422
e 372 501
e 373 618
e 373 863
e 374 407
e 374 891
e 374 561
e 374 754
e 374 443
e 375 957
e 375 424
e 375 904
e 376 839
e 376 783
e 376 526
e 376 769
e 376 960
e 376 977
e 377 409
e 377 548
e 377 464
e 379 940
e 379 408
e 379 394
e 379 644
e 381 626
e 381 430
e 381 947
e 382 935
e 382 639
e 382 754
e 384 977
e 384 487
e 385 489
e 385 768
e 385 497
e 386 699
e 386 836
e 386 690
e 387 609
e 387 646
e 387 714
e 388 511
e 388 611
e 388 602
e 389 501
e 389 782
e 389 418
e 393 527
e 393 610
e 393 479
e 393 535
e 394 689
e 394 816
e 394 777
e 394 578
e 395 536
e 395 817
e 395 522
e 395 912
e 396 964
e 396 456
e 397 436
e 397 995
e 399 830
e 399 631
e 399 988
e 401 686
e 401 937
e 401 870
e 401 779
e 402 980
e 402 778
e 404 585
e 404 409
e 404 444
e 404 752
e 405 779
e 406 892
e 406 832
e 406 770
e 406 831
e 407 430
e 407 892
e 408 959
e 408 746
e 408 631
e 409 518
e 409 654
e 410 664
e 410 757
e 410 701
e 410 474
e 411 576
e 411 725
e 412 936
e 413 704
e 413 963
e 413 799
e 414 620
e 414 548
e 415 628
e 415 490
e 415 495
e 416 882
e 416 652
e 416 590
e 416 884
e 416 951
e 417 458
e 417 521
e 418 606
e 418 736
e 418 930
e 418 623
e 418 497
e 418 663
e 419 619
e 419 983
e 421 897
e 422 778
e 422 863
e 422 799
e 423 743
e 423 893
e 423 853
e 424 430
e 425 865
e 425 974
e 425 871
e 425 600
e 425 471
e 425 503
e 426 782
e 426 691
e 426 677
e 427 533
e 427 797
e 427 769
e 427 717
e 428 590
e 428 715
e 428 700
e 431 560
e 431 498
e 431 919
e 432 782
e 432 774
e 435 594
e 435 788
e 435 784
e 435 747
e 435 552
e 439 447
e 439 612
e 439 549
e 439 575
e 439 739
e 441 553
e 441 946
e 441 940
e 442 626
e 443 786
e 443 831
e 443 998
e 443 548
e 443 751
e 444 876
e 444 782
e 444 644
e 446 555
e 446 576
e 446 709
e 446 474
e 447 753
e 447 748
e 447 749
e 447 448
e 448 768
e 449 630
e 450 556
e 452 855
e 452 938
e 452 852
e 454 632
e 454 527
e 455 791
e 455 714
e 455 911
e 456 481
e 458 786
e 458 534
e 458 668
e 459 995
e 459 980
e 459 553
e 462 463
e 462 956
e 463 862
e 463 829
e 464 493
e 464 920
e 464 712
e 465 962
e 467 757
e 467 805
e 467 930
e 467 559
e 467 779
e 469 907
e 469 926
e 469 590
e 469 906
e 471 883
e 471 496
e 472 587
e 472 830
e 473 699
e 473 735
e 473 979
e 473 519
e 474 535
e 474 527
e 474 746
e 474 910
e 475 967
e 475 994
e 476 707
e 476 915
e 477 688
e 477 974
e 477 884
e 478 568
e 478 587
e 479 597
e 479 492
e 480 582
e 481 590
e 481 673
e 481 709
e 481 520
e 482 825
e 484 549
e 484 982
e 484 527
e 484 602
e 487 590
e 488 738
e 489 863
e 490 563
e 490 962
e 492 745
e 492 637
e 492 568
e 493 796
e 494 770
e 495 520
e 495 775
e 496 647
e 496 543
e 497 979
e 498 687
e 498 508
e 498 784
e 499 913
e 499 758
e 499 764
e 500 956
e 501 852
e 501 955
e 501 657
e 501 742
e 503 709
e 503 919
e 505 859
e 505 612
e 505 646
e 508 869
e 508 758
e 509 919
e 509 770
e 509 619
e 511 718
e 511 689
e 512 586
e 513 617
e 513 735
e 513 677
e 513 636
e 514 815
e 516 520
e 516 570
e 518 881
e 518 949
e 519 972
e 520 841
e 520 887
e 520 938
e 521 661
e 521 879
e 521 566
e 522 544
e 522 837
e 522 761
e 523 995
e 525 977
e 525 801
e 526 533
e 526 578
e 527 893
e 527 867
e 529 903
e 529 863
e 529 955
e 531 573
e 531 859
e 533 615
e 533 810
e 533 663
e 534 691
e 534 616
e 534 977
e 534 775
e 535 574
e 535 665
e 535 955
e 536 724
e 537 986
e 537 714
e 540 695
e 540 575
e 540 643
e 541 650
e 541 719
e 544 766
e 544 850
e 544 739
e 546 620
e 546 812
e 548 877
e 548 984
e 548 766
e 549 791
e 549 552
e 550 837
e 550 911
e 550 920
e 553 589
e 554 730
e 554 862
e 554 902
e 555 606
e 556 754
e 556 867
e 556 864
e 558 936
e 558 581
e 558 940
e 559 780
e 559 747
e 559 735
e 559 562
e 559 643
e 559 736
e 560 760
e 560 871
e 560 684
e 560 706
e 561 616
e 562 709
e 562 713
e 562 777
e 562 618
e 562 610
e 563 786
e 564 587
e 564 994
e 564 959
e 566 911
e 566 893
e 566 864
e 567 937
e 570 609
e 570 657
e 572 941
e 572 589
e 573 960
e 574 600
e 574 686
e 574 714
e 575 678
e 575 601
e 577 747
e 577 630
e 578 758
e 578 923
e 578 900
e 578 812
e 579 979
e 579 737
e 579 801
e 581 717
e 582 997
e 585 714
e 585 840
e 585 717
e 586 867
e 588 796
e 589 816
e 589 778
e 589 736
e 591 656
e 591 713
e 591 660
e 591 730
e 592 984
e 592 906
e 592 799
e 594 822
e 599 863
e 599 994
e 600 977
e 600 790
e 601 712
e 601 764
e 604 870
e 605 606
e 605 944
e 605 815
e 606 808
e 606 765
e 606 630
e 609 716
e 610 737
e 610 978
e 610 637
e 611 788
e 615 925
e 616 714
e 616 856
e 617 721
e 617 936
e 618 920
e 618 927
e 620 763
e 620 627
e 620 770
e 620 817
e 621 723
e 621 766
e 621 757
e 622 891
e 622 864
e 623 977
e 623 704
e 626 654
e 626 803
e 627 982
e 627 832
e 627 664
e 628 953
e 628 786
e 629 942
e 629 896
e 629 983
e 629 994
e 630 885
e 632 634
e 632 940
e 634 657
e 634 779
e 635 947
e 636 690
e 636 659
e 637 949
e 637 760
e 639 702
e 639 760
e 641 864
e 641 720
e 641 777
e 641 891
e 641 880
e 643 703
e 644 816
e 646 871
e 647 696
e 647 665
e 647 953
e 647 814
e 649 742
e 650 701
e 650 970
e 651 782
e 651 794
e 651 786
e 652 713
e 654 864
e 654 904
e 656 678
e 656 672
e 659 778
e 659 869
e 660 916
e 661 887
e 661 763
e 662 719
e 662 810
e 662 825
e 663 791
e 663 843
e 663 726
e 665 974
e 666 795
e 666 711
e 669 882
e 669 908
e 670 719
e 670 847
e 670 871
e 671 960
e 672 870
e 672 726
e 672 741
e 672 971
e 673 993
e 673 846
e 674 772
e 674 714
e 677 870
e 677 959
e 677 833
e 678 802
e 678 997
e 681 957
e 681 812
e 681 972
e 684 736
e 684 871
e 685 853
e 685 963
e 686 803
e 687 724
e 687 866
e 687 752
e 688 725
e 688 767
e 689 774
e 689 815
e 689 852
e 690 814
e 692 719
e 692 864
e 693 728
e 693 817
e 695 799
e 696 867
e 699 935
e 700 716
e 701 927
e 702 859
e 703 863
e 706 828
e 706 804
e 706 991
e 707 993
e 710 974
e 710 713
e 711 859
e 712 774
e 712 825
e 714 829
e 715 767
e 716 1000
e 716 978
e 716 908
e 717 837
e 717 791
e 718 886
e 718 919
e 719 760
e 720 783
e 720 944
e 721 965
e 721 821
e 723 808
e 725 865
e 725 910
e 725 749
e 726 749
e 728 841
e 729 933
e 729 870
e 730 850
e 731 869
e 732 906
e 732 942
e 735 951
e 736 867
e 736 797
e 737 784
e 738 869
e 741 836
e 741 988
e 741 831
e 742 855
e 742 946
e 743 865
e 743 988
e 745 903
e 745 964
e 751 794
e 753 777
e 753 764
e 758 904
e 763 912
e 766 925
e 766 907
e 766 790
e 768 783
e 768 1000
e 774 877
e 774 904
e 774 778
e 775 970
e 776 962
e 779 780
e 779 822
e 779 978
e 782 836
e 783 848
e 783 863
e 783 953
e 783 786
e 784 869
e 786 935
e 789 923
e 789 837
e 790 800
e 791 884
e 794 993
e 795 842
e 796 942
e 799 867
e 799 967
e 799 903
e 800 897
e 800 951
e 802 883
e 803 814
e 803 846
e 804 938
e 804 870
e 804 829
e 805 995
e 805 851
e 805 949
e 811 830
e 811 880
e 817 879
e 820 885
e 821 955
e 825 956
e 825 988
e 828 866
e 829 962
e 832 886
e 832 847
e 832 957
e 832 907
e 833 982
e 834 942
e 835 944
e 835 903
e 836 864
e 838 846
e 838 959
e 840 1000
e 844 954
e 848 925
e 848 904
e 848 977
e 848 991
e 851 886
e 851 911
e 853 967
e 856 952
e 858 871
e 858 986
e 859 863
e 862 949
e 862 925
e 864 910
e 866 881
e 867 909
e 868 951
e 870 956
e 870 984
e 872 923
e 879 998
e 882 935
e 882 946
e 883 988
e 884 994
e 886 887
e 887 968
e 889 982
e 892 939
e 892 916
e 897 935
e 900 955
e 904 964
e 906 980
e 909 941
e 915 974
e 916 949
e 916 954
e 916 978
e 923 947
e 925 983
e 926 935
e 930 957
e 933 935
e 939 953
e 941 983
e 942 991
e 946 991
e 949 977
e 953 998
e 955 972
e 959 965
e 960 971
e 962 970
e 980 983
