txt_Ins/graph-1000-10.txt
n 1000
e 0 715
e 0 425
e 0 179
e 2 267
e 2 341
e 2 981
e 2 795
e 2 588
e 2 653
e 6 387
e 6 896
e 6 907
e 6 227
e 8 123
e 8 143
e 8 375
e 8 376
e 8 253
e 9 663
e 9 59
e 9 333
e 9 828
e 9 104
e 9 480
e 11 75
e 11 371
e 11 508
e 11 412
e 12 667
e 12 799
e 12 99
e 12 104
e 12 587
e 12 395
e 13 471
e 13 155
e 13 669
e 13 993
e 13 232
e 13 747
e 15 581
e 15 194
e 15 611
e 17 41
e 17 393
e 17 567
e 18 630
e 18 420
e 18 934
e 20 841
e 20 689
e 20 549
e 20 929
e 20 983
e 20 353
e 21 107
e 21 199
e 21 601
e 22 847
e 22 618
e 22 834
e 22 670
e 22 372
e 23 37
e 23 706
e 23 659
e 23 746
e 24 38
e 24 587
e 24 421
e 24 308
e 24 878
e 25 413
e 25 636
e 25 279
e 25 718
e 26 710
e 26 75
e 26 311
e 31 744
e 31 795
e 31 614
e 33 628
e 33 712
e 33 621
e 33 608
e 33 562
e 34 487
e 34 551
e 34 424
e 34 760
e 34 37
e 34 905
e 34 875
e 37 193
e 37 508
e 37 931
e 37 631
e 38 434
e 38 125
e 40 474
e 40 406
e 40 339
e 40 502
e 41 108
e 41 249
e 41 951
e 41 122
e 41 670
e 41 487
e 41 617
e 41 702
e 41 598
e 41 256
e 43 210
e 43 895
e 43 481
e 45 350
e 45 834
e 45 84
e 45 542
e 45 297
e 45 393
e 46 387
e 46 689
e 46 457
e 46 563
e 46 462
e 46 191
e 47 771
e 47 788
e 47 539
e 47 834
e 49 528
e 49 872
e 49 147
e 50 313
e 50 692
e 50 617
e 50 210
e 50 566
e 51 665
e 51 319
e 51 816
e 51 748
e 52 197
e 52 555
e 52 719
e 52 740
e 52 565
e 52 472
e 52 429
e 52 274
e 55 316
e 55 801
e 55 512
e 57 273
e 57 221
e 57 384
e 58 241
e 58 966
e 58 883
e 58 659
e 58 311
e 59 711
e 59 969
e 59 493
e 60 662
e 60 475
e 60 585
e 60 846
e 60 431
e 60 608
e 62 867
e 62 994
e 62 719
e 62 351
e 62 81
e 62 884
e 63 124
e 63 198
e 63 466
e 63 298
e 64 772
e 64 425
e 64 248
e 64 404
e 64 87
e 65 744
e 65 535
e 65 448
e 68 631
e 68 551
e 68 427
e 68 839
e 68 501
e 71 809
e 71 393
e 71 511
e 72 212
e 72 286
e 72 950
e 72 354
e 72 441
e 72 616
e 74 380
e 74 109
e 74 821
e 74 393
e 75 135
e 75 335
e 75 315
e 75 687
e 75 766
e 75 312
e 75 524
e 76 114
e 76 545
e 76 718
e 76 939
e 76 393
e 77 343
e 77 969
e 77 410
e 78 246
e 78 269
e 78 498
e 79 241
e 79 609
e 79 441
e 79 768
e 79 318
e 79 854
e 79 293
e 80 170
e 80 787
e 80 315
e 81 299
e 81 365
e 81 212
e 81 189
e 81 447
e 81 345
e 83 858
e 83 731
e 83 772
e 84 599
e 84 560
e 84 247
e 84 208
e 84 337
e 84 314
e 85 102
e 85 368
e 85 518
e 87 114
e 87 315
e 87 742
e 87 901
e 87 508
e 88 728
e 88 640
e 88 536
e 92 151
e 92 745
e 92 779
e 94 201
e 94 978
e 94 542
e 95 522
e 95 962
e 95 342
e 95 471
e 95 473
e 95 838
e 95 190
e 97 684
e 97 700
e 97 181
e 99 577
e 99 182
e 100 370
e 100 869
e 100 430
e 100 558
e 100 684
e 100 345
e 100 501
e 100 716
e 100 705
e 100 575
e 100 762
e 101 935
e 101 288
e 101 840
e 102 507
e 102 703
e 102 237
e 102 188
e 104 447
e 105 178
e 105 734
e 105 442
e 105 816
e 105 729
e 105 246
e 105 660
e 106 331
e 106 858
e 106 325
e 106 879
e 106 475
e 107 971
e 107 985
e 107 881
e 107 892
e 107 471
e 107 331
e 107 619
e 107 131
e 107 662
e 107 126
e 107 847
e 108 819
e 108 630
e 109 440
e 109 775
e 111 748
e 111 540
e 111 981
e 114 481
e 114 411
e 114 963
e 114 280
e 114 451
e 114 902
e 114 767
e 115 885
e 115 213
e 115 427
e 115 128
e 115 618
e 115 435
e 115 162
e 120 443
e 120 964
e 120 217
e 122 447
e 122 209
e 122 720
e 123 475
e 123 667
e 123 762
e 123 288
e 124 533
e 124 513
e 124 225
e 124 933
e 125 416
e 125 496
e 125 551
e 125 383
e 125 195
e 126 807
e 126 573
e 126 617
e 126 375
e 126 667
e 127 902
e 127 156
e 127 730
e 127 751
e 128 843
e 128 515
e 128 608
e 128 424
e 128 478
e 129 301
e 129 829
e 129 723
e 131 782
e 131 638
e 131 508
e 131 530
e 131 448
e 133 985
e 133 775
e 133 728
e 134 434
e 134 816
e 134 999
e 134 862
e 134 477
e 135 401
e 135 931
e 136 143
e 136 332
e 136 526
e 136 850
e 136 571
e 137 625
e 137 668
e 137 603
e 138 204
e 138 265
e 138 858
e 140 447
e 140 804
e 140 918
e 140 636
e 142 779
e 142 840
e 142 966
e 142 750
e 142 914
e 142 434
e 142 760
e 142 396
e 143 716
e 143 175
e 143 976
e 143 630
e 144 724
e 144 352
e 144 441
e 144 522
e 144 259
e 144 690
e 144 767
e 145 483
e 145 359
e 145 645
e 146 587
e 146 888
e 146 416
e 146 730
e 146 228
e 147 530
e 147 269
e 147 759
e 147 764
e 147 700
e 147 600
e 147 199
e 151 871
e 151 751
e 151 357
e 151 277
e 155 473
e 155 275
e 155 239
e 155 495
e 155 170
e 155 701
e 155 907
e 156 303
e 156 567
e 156 543
e 158 258
e 158 959
e 158 888
e 160 660
e 160 557
e 160 170
e 160 515
e 161 918
e 161 843
e 161 574
e 162 914
e 162 172
e 164 729
e 164 194
e 164 850
e 164 709
e 165 304
e 165 738
e 165 353
e 165 278
e 167 996
e 167 545
e 167 323
e 167 638
e 168 542
e 168 847
e 168 842
e 168 286
e 168 876
e 168 747
e 170 804
e 170 281
e 170 796
e 170 296
e 170 924
e 170 794
e 171 251
e 171 776
e 171 316
e 172 729
e 172 664
e 172 422
e 172 316
e 172 539
e 172 350
e 173 475
e 173 740
e 173 210
e 174 324
e 174 649
e 174 216
e 174 699
e 175 691
e 175 301
e 176 479
e 176 241
e 176 524
e 176 753
e 176 862
e 176 273
e 176 771
e 177 549
e 177 694
e 177 352
e 177 254
e 177 751
e 177 781
e 177 376
e 177 499
e 177 528
e 178 194
e 178 845
e 178 899
e 178 466
e 179 622
e 179 729
e 179 495
e 179 569
e 179 895
e 181 615
e 181 694
e 182 880
e 182 359
e 182 189
e 184 625
e 184 267
e 184 730
e 184 603
e 184 424
e 184 635
e 186 483
e 186 547
e 186 838
e 187 536
e 187 629
e 187 540
e 188 590
e 188 511
e 188 849
e 188 216
e 189 246
e 189 400
e 189 867
e 189 804
e 190 776
e 190 994
e 190 671
e 190 496
e 190 901
e 191 906
e 191 543
e 191 605
e 191 918
e 192 455
e 192 430
e 192 999
e 192 605
e 192 540
e 192 596
e 193 513
e 193 933
e 193 517
e 194 940
e 195 983
e 195 233
e 195 424
e 195 507
e 196 201
e 196 445
e 196 757
e 196 941
e 197 934
e 197 907
e 197 276
e 197 464
e 197 605
e 198 722
e 198 670
e 198 737
e 199 576
e 199 640
e 199 967
e 199 259
e 201 326
e 201 819
e 201 442
e 201 672
e 202 282
e 202 254
e 202 933
e 203 480
e 203 885
e 203 804
e 203 691
e 203 225
e 204 628
e 204 950
e 204 911
e 207 495
e 207 534
e 207 553
e 208 518
e 208 932
e 209 590
e 209 226
e 209 370
e 210 939
e 210 304
e 210 865
e 212 590
e 212 296
e 212 585
e 213 552
e 213 383
e 213 558
e 213 447
e 213 375
e 214 837
e 214 510
e 214 341
e 214 314
e 214 912
e 215 956
e 215 875
e 215 517
e 215 393
e 216 820
e 216 323
e 217 996
e 217 640
e 217 939
e 218 772
e 218 614
e 218 365
e 218 224
e 218 398
e 218 260
e 221 935
e 221 649
e 221 885
e 221 838
e 224 896
e 224 775
e 224 585
e 225 665
e 226 353
e 226 331
e 226 912
e 226 879
e 226 299
e 226 862
e 227 280
e 227 863
e 227 475
e 227 795
e 227 488
e 227 849
e 228 840
e 228 614
e 228 349
e 228 421
e 228 719
e 228 418
e 230 618
e 230 510
e 230 417
e 231 356
e 231 411
e 231 271
e 231 600
e 231 908
e 232 868
e 232 882
e 232 364
e 232 363
e 233 271
e 233 534
e 235 832
e 235 267
e 235 759
e 235 599
e 235 987
e 237 699
e 237 658
e 238 634
e 238 729
e 238 261
e 239 448
e 239 735
e 239 457
e 239 599
e 239 958
e 241 725
e 241 458
e 245 953
e 245 798
e 245 265
e 246 710
e 246 685
e 246 649
e 246 686
e 246 843
e 247 772
e 247 479
e 247 310
e 247 620
e 247 699
e 248 259
e 248 263
e 248 867
e 249 852
e 249 520
e 251 539
e 251 727
e 251 604
e 251 336
e 251 658
e 253 979
e 253 908
e 253 581
e 253 661
e 253 501
e 254 407
e 254 653
e 254 996
e 256 404
e 256 708
e 257 803
e 257 398
e 257 748
e 257 261
e 257 869
e 258 620
e 258 307
e 260 852
e 260 335
e 260 279
e 260 723
e 261 547
e 261 331
e 261 314
e 262 937
e 262 271
e 262 492
e 262 584
e 262 831
e 262 479
e 262 864
e 263 880
e 263 357
e 263 764
e 263 473
e 265 713
e 265 330
e 267 932
e 267 701
e 267 753
e 267 324
e 269 724
e 269 843
e 269 576
e 270 471
e 270 461
e 270 368
e 271 779
e 271 355
e 272 622
e 272 924
e 272 307
e 272 760
e 273 555
e 273 554
e 274 648
e 274 331
e 274 581
e 274 943
e 275 852
e 275 714
e 275 502
e 275 629
e 276 954
e 276 457
e 277 753
e 277 380
e 277 394
e 278 501
e 278 885
e 278 363
e 279 329
e 279 489
e 280 748
e 280 907
e 280 926
e 281 324
e 281 310
e 281 914
e 281 692
e 281 412
e 282 480
e 282 388
e 282 332
e 282 338
e 282 833
e 282 627
e 282 566
e 285 901
e 285 461
e 285 961
e 286 774
e 288 841
e 289 827
e 289 872
e 289 435
e 289 840
e 290 914
e 290 493
e 290 409
e 293 297
e 293 304
e 293 464
e 293 827
e 294 981
e 294 610
e 294 790
e 294 355
e 294 635
e 296 842
e 296 343
e 296 690
e 297 303
e 298 884
e 298 983
e 298 530
e 298 440
e 298 645
e 298 829
e 299 487
e 299 629
e 299 305
e 301 315
e 301 431
e 301 630
e 301 395
e 301 752
e 301 816
e 303 489
e 303 643
e 304 820
e 305 315
e 305 631
e 305 846
e 305 673
e 307 478
e 307 870
e 308 420
e 308 771
e 308 491
e 308 951
e 308 539
e 310 796
e 310 655
e 311 881
e 311 804
e 311 423
e 312 335
e 312 366
e 313 933
e 313 589
e 314 462
e 314 476
e 314 852
e 314 319
e 314 738
e 314 458
e 315 875
e 316 510
e 316 941
e 316 420
e 318 857
e 318 631
e 318 819
e 319 776
e 319 909
e 320 985
e 320 510
e 320 338
e 320 572
e 323 412
e 324 584
e 324 993
e 324 692
e 325 936
e 325 925
e 326 709
e 326 687
e 326 841
e 329 775
e 329 759
e 329 621
e 329 952
e 330 886
e 330 417
e 330 571
e 330 600
e 331 868
e 331 593
e 331 719
e 331 776
e 332 438
e 332 970
e 332 686
e 333 815
e 333 524
e 333 443
e 333 668
e 333 596
e 334 499
e 334 448
e 334 855
e 334 672
e 334 970
e 334 553
e 335 895
e 335 800
e 335 969
e 335 967
e 336 480
e 336 424
e 336 796
e 337 737
e 337 901
e 338 659
e 338 922
e 339 799
e 339 684
e 339 378
e 340 346
e 340 554
e 340 648
e 341 525
e 342 807
e 342 872
e 342 475
e 342 750
e 342 952
e 343 811
e 343 810
e 343 517
e 345 802
e 345 392
e 345 669
e 345 918
e 346 448
e 346 941
e 347 375
e 347 349
e 347 403
e 349 854
e 349 609
e 350 695
e 350 833
e 350 836
e 350 571
e 350 720
e 350 888
e 350 410
e 350 448
e 350 931
e 351 449
e 351 843
e 351 774
e 351 703
e 352 956
e 352 788
e 353 833
e 354 738
e 354 408
e 355 634
e 355 447
e 355 551
e 356 580
e 356 871
e 357 907
e 359 562
e 359 789
e 359 938
e 361 593
e 361 925
e 361 619
e 363 486
e 364 475
e 364 764
e 364 453
e 364 651
e 364 861
e 365 744
e 365 809
e 366 424
e 366 719
e 366 416
e 367 501
e 367 408
e 367 751
e 367 729
e 368 691
e 368 403
e 368 938
e 370 802
e 370 449
e 370 847
e 370 768
e 370 885
e 371 958
e 371 648
e 371 736
e 371 673
e 371 421
e 371 500
e 372 617
e 372 862
e 373 406
e 373 890
e 373 560
e 373 753
e 373 442
e 374 956
e 374 423
e 374 903
e 375 838
e 375 782
e 375 525
e 375 768
e 375 959
e 375 976
e 376 408
e 376 547
e 376 463
e 378 939
e 378 407
e 378 393
e 378 643
e 380 625
e 380 429
e 380 946
e 381 934
e 381 638
e 381 753
e 383 976
e 383 486
e 384 488
e 384 767
e 384 496
e 385 698
e 385 835
e 385 689
e 386 608
e 386 645
e 386 713
e 387 510
e 387 610
e 387 601
e 388 500
e 388 781
e 388 417
e 392 526
e 392 609
e 392 478
e 392 534
e 393 688
e 393 815
e 393 776
e 393 577
e 394 535
e 394 816
e 394 521
e 394 911
e 395 963
e 395 455
e 396 435
e 396 994
e 398 829
e 398 630
e 398 987
e 400 685
e 400 936
e 400 869
e 400 778
e 401 979
e 401 777
e 403 584
e 403 408
e 403 443
e 403 751
e 404 778
e 405 891
e 405 831
e 405 769
e 405 830
e 406 429
e 406 891
e 407 958
e 407 745
e 407 630
e 408 517
e 408 653
e 409 663
e 409 756
e 409 700
e 409 473
e 410 575
e 410 724
e 411 935
e 412 703
e 412 962
e 412 798
e 413 619
e 413 547
e 414 627
e 414 489
e 414 494
e 415 881
e 415 651
e 415 589
e 415 883
e 415 950
e 416 457
e 416 520
e 417 605
e 417 735
e 417 929
e 417 622
e 417 496
e 417 662
e 418 618
e 418 982
e 420 896
e 421 777
e 421 862
e 421 798
e 422 742
e 422 892
e 422 852
e 423 429
e 424 864
e 424 973
e 424 870
e 424 599
e 424 470
e 424 502
e 425 781
e 425 690
e 425 676
e 426 532
e 426 796
e 426 768
e 426 716
e 427 589
e 427 714
e 427 699
e 430 559
e 430 497
e 430 918
e 431 781
e 431 773
e 434 593
e 434 787
e 434 783
e 434 746
e 434 551
e 438 446
e 438 611
e 438 548
e 438 574
e 438 738
e 440 552
e 440 945
e 440 939
e 441 625
e 442 785
e 442 830
e 442 997
e 442 547
e 442 750
e 443 875
e 443 781
e 443 643
e 445 554
e 445 575
e 445 708
e 445 473
e 446 752
e 446 747
e 446 748
e 446 447
e 447 767
e 448 629
e 449 555
e 451 854
e 451 937
e 451 851
e 453 631
e 453 526
e 454 790
e 454 713
e 454 910
e 455 480
e 457 785
e 457 533
e 457 667
e 458 994
e 458 979
e 458 552
e 461 462
e 461 955
e 462 861
e 462 828
e 463 492
e 463 919
e 463 711
e 464 961
e 466 756
e 466 804
e 466 929
e 466 558
e 466 778
e 468 906
e 468 925
e 468 589
e 468 905
e 470 882
e 470 495
e 471 586
e 471 829
e 472 698
e 472 734
e 472 978
e 472 518
e 473 534
e 473 526
e 473 745
e 473 909
e 474 966
e 474 993
e 475 706
e 475 914
e 476 687
e 476 973
e 476 883
e 477 567
e 477 586
e 478 596
e 478 491
e 479 581
e 480 589
e 480 672
e 480 708
e 480 519
e 481 824
e 483 548
e 483 981
e 483 526
e 483 601
e 486 589
e 487 737
e 488 862
e 489 562
e 489 961
e 491 744
e 491 636
e 491 567
e 492 795
e 493 769
e 494 519
e 494 774
e 495 646
e 495 542
e 496 978
e 497 686
e 497 507
e 497 783
e 498 912
e 498 757
e 498 763
e 499 955
e 500 851
e 500 954
e 500 656
e 500 741
e 502 708
e 502 918
e 504 858
e 504 611
e 504 645
e 507 868
e 507 757
e 508 918
e 508 769
e 508 618
e 510 717
e 510 688
e 511 585
e 512 616
e 512 734
e 512 676
e 512 635
e 513 814
e 515 519
e 515 569
e 517 880
e 517 948
e 518 971
e 519 840
e 519 886
e 519 937
e 520 660
e 520 878
e 520 565
e 521 543
e 521 836
e 521 760
e 522 994
e 524 976
e 524 800
e 525 532
e 525 577
e 526 892
e 526 866
e 528 902
e 528 862
e 528 954
e 530 572
e 530 858
e 532 614
e 532 809
e 532 662
e 533 690
e 533 615
e 533 976
e 533 774
e 534 573
e 534 664
e 534 954
e 535 723
e 536 985
e 536 713
e 539 694
e 539 574
e 539 642
e 540 649
e 540 718
e 543 765
e 543 849
e 543 738
e 545 619
e 545 811
e 547 876
e 547 983
e 547 765
e 548 790
e 548 551
e 549 836
e 549 910
e 549 919
e 552 588
e 553 729
e 553 861
e 553 901
e 554 605
e 555 753
e 555 866
e 555 863
e 557 935
e 557 580
e 557 939
e 558 779
e 558 746
e 558 734
e 558 561
e 558 642
e 558 735
e 559 759
e 559 870
e 559 683
e 559 705
e 560 615
e 561 708
e 561 712
e 561 776
e 561 617
e 561 609
e 562 785
e 563 586
e 563 993
e 563 958
e 565 910
e 565 892
e 565 863
e 566 936
e 569 608
e 569 656
e 571 940
e 571 588
e 572 959
e 573 599
e 573 685
e 573 713
e 574 677
e 574 600
e 576 746
e 576 629
e 577 757
e 577 922
e 577 899
e 577 811
e 578 978
e 578 736
e 578 800
e 580 716
e 581 996
e 584 713
e 584 839
e 584 716
e 585 866
e 587 795
e 588 815
e 588 777
e 588 735
e 590 655
e 590 712
e 590 659
e 590 729
e 591 983
e 591 905
e 591 798
e 593 821
e 598 862
e 598 993
e 599 976
e 599 789
e 600 711
e 600 763
e 603 869
e 604 605
e 604 943
e 604 814
e 605 807
e 605 764
e 605 629
e 608 715
e 609 736
e 609 977
e 609 636
e 610 787
e 614 924
e 615 713
e 615 855
e 616 720
e 616 935
e 617 919
e 617 926
e 619 762
e 619 626
e 619 769
e 619 816
e 620 722
e 620 765
e 620 756
e 621 890
e 621 863
e 622 976
e 622 703
e 625 653
e 625 802
e 626 981
e 626 831
e 626 663
e 627 952
e 627 785
e 628 941
e 628 895
e 628 982
e 628 993
e 629 884
e 631 633
e 631 939
e 633 656
e 633 778
e 634 946
e 635 689
e 635 658
e 636 948
e 636 759
e 638 701
e 638 759
e 640 863
e 640 719
e 640 776
e 640 890
e 640 879
e 642 702
e 643 815
e 645 870
e 646 695
e 646 664
e 646 952
e 646 813
e 648 741
e 649 700
e 649 969
e 650 781
e 650 793
e 650 785
e 651 712
e 653 863
e 653 903
e 655 677
e 655 671
e 658 777
e 658 868
e 659 915
e 660 886
e 660 762
e 661 718
e 661 809
e 661 824
e 662 790
e 662 842
e 662 725
e 664 973
e 665 794
e 665 710
e 668 881
e 668 907
e 669 718
e 669 846
e 669 870
e 670 959
e 671 869
e 671 725
e 671 740
e 671 970
e 672 992
e 672 845
e 673 771
e 673 713
e 676 869
e 676 958
e 676 832
e 677 801
e 677 996
e 680 956
e 680 811
e 680 971
e 683 735
e 683 870
e 684 852
e 684 962
e 685 802
e 686 723
e 686 865
e 686 751
e 687 724
e 687 766
e 688 773
e 688 814
e 688 851
e 689 813
e 691 718
e 691 863
e 692 727
e 692 816
e 694 798
e 695 866
e 698 934
e 699 715
e 700 926
e 701 858
e 702 862
e 705 827
e 705 803
e 705 990
e 706 992
e 709 973
e 709 712
e 710 858
e 711 773
e 711 824
e 713 828
e 714 766
e 715 999
e 715 977
e 715 907
e 716 836
e 716 790
e 717 885
e 717 918
e 718 759
e 719 782
e 719 943
e 720 964
e 720 820
e 722 807
e 724 864
e 724 909
e 724 748
e 725 748
e 727 840
e 728 932
e 728 869
e 729 849
e 730 868
e 731 905
e 731 941
e 734 950
e 735 866
e 735 796
e 736 783
e 737 868
e 740 835
e 740 987
e 740 830
e 741 854
e 741 945
e 742 864
e 742 987
e 744 902
e 744 963
e 750 793
e 752 776
e 752 763
e 757 903
e 762 911
e 765 924
e 765 906
e 765 789
e 767 782
e 767 999
e 773 876
e 773 903
e 773 777
e 774 969
e 775 961
e 778 779
e 778 821
e 778 977
e 781 835
e 782 847
e 782 862
e 782 952
e 782 785
e 783 868
e 785 934
e 788 922
e 788 836
e 789 799
e 790 883
e 793 992
e 794 841
e 795 941
e 798 866
e 798 966
e 798 902
e 799 896
e 799 950
e 801 882
e 802 813
e 802 845
e 803 937
e 803 869
e 803 828
e 804 994
e 804 850
e 804 948
e 810 829
e 810 879
e 816 878
e 819 884
e 820 954
e 824 955
e 824 987
e 827 865
e 828 961
e 831 885
e 831 846
e 831 956
e 831 906
e 832 981
e 833 941
e 834 943
e 834 902
e 835 863
e 837 845
e 837 958
e 839 999
e 843 953
e 847 924
e 847 903
e 847 976
e 847 990
e 850 885
e 850 910
e 852 966
e 855 951
e 857 870
e 857 985
e 858 862
e 861 948
e 861 924
e 863 909
e 865 880
e 866 908
e 867 950
e 869 955
e 869 983
e 871 922
e 878 997
e 881 934
e 881 945
e 882 987
e 883 993
e 885 886
e 886 967
e 888 981
e 891 938
e 891 915
e 896 934
e 899 954
e 903 963
e 905 979
e 908 940
e 914 973
e 915 948
e 915 953
e 915 977
e 922 946
e 924 982
e 925 934
e 929 956
e 932 934
e 938 952
e 940 982
e 941 990
e 945 990
e 948 976
e 952 997
e 954 971
e 958 964
e 959 970
e 961 969
e 979 982
